<number of tasks>
58

<cycle time>
74

<task times>
1 10
2 53
3 41
4 36
5 35
6 17
7 34
8 23
9 14
10 52
11 33
12 34
13 12
14 52
15 12
16 33
17 44
18 7
19 15
20 13
21 29
22 37
23 43
24 23
25 24
26 9
27 16
28 12
29 26
30 22
31 51
32 47
33 34
34 23
35 12
36 52
37 12
38 33
39 44
40 7
41 15
42 13
43 29
44 37
45 43
46 23
47 24
48 9
49 16
50 12
51 26
52 12
53 52
54 12
55 33
56 44
57 7
58 15

<precedence relations>
1,9
2,25
3,21
3,22
4,10
5,36
6,23
6,24
7,43
8,44
9,11
11,13
11,14
11,15
12,17
13,17
14,17
15,17
16,18
17,20
18,19
19,23
20,21
20,25
21,26
21,44
22,27
23,31
24,31
25,38
26,29
27,30
28,32
28,33
29,31
30,34
31,36
32,45
33,35
34,36
35,43
36,37
36,38
37,39
37,40
37,41
38,52
39,43
40,43
41,42
42,43
43,45
44,45
45,46
45,48
45,49
46,47
46,50
47,51
48,55
49,58
50,58
51,52
52,53
53,54
54,55
54,56
55,57
56,57
57,58

<setup times forward>
1,2:5
1,3:2
1,4:7
1,5:3
1,6:2
1,7:4
1,10:6
1,16:2
1,18:4
1,19:3
1,22:7
1,23:2
1,24:4
1,28:5
1,30:1
1,33:1
1,34:4
1,35:5
2,1:5
2,3:3
2,4:2
2,5:2
2,6:3
2,7:1
2,8:5
2,9:5
2,10:1
2,11:1
2,12:5
2,13:2
2,14:6
2,15:2
2,16:3
2,17:3
2,18:1
2,19:2
2,20:3
2,21:7
2,22:2
2,23:7
2,24:9
2,25:9
2,27:5
2,29:9
2,30:6
2,31:1
2,32:5
2,33:4
2,34:1
2,35:10
2,36:1
2,37:10
2,39:10
2,40:9
2,41:9
2,42:9
2,43:2
2,44:4
2,45:2
2,46:4
2,47:4
2,48:1
2,49:7
2,50:1
2,51:4
3,1:2
3,2:3
3,4:5
3,5:1
3,7:2
3,8:2
3,9:2
3,10:4
3,11:2
3,12:2
3,13:1
3,14:3
3,15:1
3,18:2
3,19:1
3,21:4
3,22:5
3,23:4
3,24:6
3,25:6
3,28:3
3,32:2
3,33:1
3,35:7
4,1:7
4,2:2
4,3:5
4,5:4
4,6:5
4,7:3
4,8:7
4,9:7
4,10:1
4,11:3
4,12:7
4,13:4
4,14:8
4,15:4
4,16:5
4,17:5
4,18:3
4,19:4
4,20:5
4,21:9
4,23:9
4,24:11
4,25:11
4,26:2
4,27:7
4,28:2
4,29:11
4,30:8
4,31:3
4,32:7
4,33:6
4,34:3
4,35:12
4,36:1
4,37:12
4,38:11
4,39:12
4,40:11
4,41:11
4,42:11
4,44:6
4,46:6
4,47:6
4,48:1
4,49:9
4,50:1
4,51:6
4,52:4
4,53:4
4,54:1
4,55:9
4,56:1
4,57:9
4,58:9
5,1:3
5,2:2
5,3:1
5,4:4
5,6:1
5,7:1
5,8:3
5,9:3
5,10:3
5,11:1
5,12:3
5,14:4
5,16:1
5,17:1
5,18:1
5,20:1
5,21:5
5,22:4
5,23:5
5,24:7
5,25:7
5,26:2
5,27:3
5,28:2
5,29:7
5,30:4
5,31:1
5,32:3
5,33:2
5,34:1
5,35:8
5,36:3
5,44:2
6,1:2
6,2:3
6,4:5
6,5:1
6,7:2
6,8:2
6,9:2
6,10:4
6,11:2
6,12:2
6,13:1
6,14:3
6,15:1
6,18:2
6,19:1
6,21:4
6,22:5
6,23:4
6,24:6
6,25:6
6,26:3
6,27:2
6,28:3
6,29:6
6,30:3
6,32:2
6,33:1
6,34:2
6,35:7
6,44:1
7,1:4
7,2:1
7,3:2
7,4:3
7,5:1
7,6:2
7,8:4
7,9:4
7,10:2
7,12:4
7,13:1
7,14:5
7,15:1
7,16:2
7,17:2
7,19:1
7,20:2
7,21:6
7,22:3
7,23:6
7,24:8
7,25:8
7,26:1
7,27:4
7,28:1
7,29:8
7,30:5
7,32:4
7,33:3
7,35:9
7,36:2
7,37:9
7,38:8
7,39:9
7,40:8
7,41:8
7,42:8
7,43:3
7,44:3
8,2:5
8,3:2
8,4:7
8,5:3
8,6:2
8,7:4
8,10:6
8,11:4
8,13:3
8,14:1
8,15:3
8,16:2
8,17:2
8,18:4
8,19:3
8,20:2
8,21:2
8,22:7
8,23:2
8,24:4
8,25:4
8,26:5
8,28:5
8,29:4
8,30:1
8,31:4
8,33:1
8,34:4
8,35:5
8,36:6
8,37:5
8,38:4
8,39:5
8,40:4
8,41:4
8,42:4
8,43:7
8,44:1
9,2:5
9,3:2
9,4:7
9,5:3
9,6:2
9,7:4
9,10:6
9,11:4
9,16:2
9,18:4
9,19:3
9,22:7
9,23:2
9,24:4
9,28:5
9,30:1
9,33:1
9,34:4
9,35:5
10,1:6
10,2:1
10,3:4
10,5:3
10,6:4
10,7:2
10,8:6
10,9:6
10,11:2
10,12:6
10,13:3
10,14:7
10,15:3
10,16:4
10,17:4
10,18:2
10,19:3
10,20:4
10,21:8
10,22:1
10,23:8
10,24:10
10,25:10
10,26:1
10,27:6
10,28:1
10,29:10
10,30:7
10,31:2
10,32:6
10,33:5
10,34:2
10,35:11
10,37:11
10,38:10
10,39:11
10,40:10
10,41:10
10,42:10
10,43:1
10,44:5
10,45:1
10,46:5
10,47:5
10,49:8
10,51:5
10,52:3
10,53:3
10,55:8
10,57:8
10,58:8
11,2:1
11,3:2
11,4:3
11,5:1
11,6:2
11,8:4
11,10:2
11,12:4
11,13:1
11,14:5
11,15:1
11,16:2
11,19:1
11,22:3
11,23:6
11,24:8
11,27:4
11,28:1
11,30:5
11,32:4
11,33:3
11,35:9
12,2:5
12,3:2
12,4:7
12,5:3
12,6:2
12,7:4
12,10:6
12,11:4
12,13:3
12,14:1
12,15:3
12,16:2
12,17:2
12,18:4
12,19:3
12,22:7
12,23:2
12,24:4
12,28:5
12,30:1
12,33:1
12,34:4
12,35:5
13,2:2
13,3:1
13,4:4
13,6:1
13,7:1
13,8:3
13,10:3
13,12:3
13,14:4
13,16:1
13,17:1
13,18:1
13,22:4
13,23:5
13,24:7
13,27:3
13,28:2
13,30:4
13,32:3
13,33:2
13,34:1
13,35:8
14,2:6
14,3:3
14,4:8
14,5:4
14,6:3
14,7:5
14,8:1
14,10:7
14,12:1
14,13:4
14,15:4
14,16:3
14,17:3
14,18:5
14,19:4
14,22:8
14,23:1
14,24:3
14,27:1
14,28:6
14,32:1
14,33:2
14,34:5
14,35:4
15,2:2
15,3:1
15,4:4
15,6:1
15,7:1
15,8:3
15,10:3
15,12:3
15,14:4
15,16:1
15,17:1
15,18:1
15,22:4
15,23:5
15,24:7
15,27:3
15,28:2
15,30:4
15,32:3
15,33:2
15,34:1
15,35:8
16,1:2
16,2:3
16,4:5
16,5:1
16,7:2
16,8:2
16,9:2
16,10:4
16,11:2
16,12:2
16,13:1
16,14:3
16,15:1
16,18:2
16,21:4
16,22:5
16,24:6
16,25:6
16,26:3
16,27:2
16,28:3
16,29:6
16,30:3
16,32:2
16,33:1
16,34:2
16,35:7
16,44:1
17,2:3
17,4:5
17,5:1
17,7:2
17,8:2
17,10:4
17,18:2
17,19:1
17,22:5
17,23:4
17,24:6
17,27:2
17,28:3
17,30:3
17,32:2
17,33:1
17,34:2
17,35:7
18,1:4
18,2:1
18,3:2
18,4:3
18,5:1
18,6:2
18,8:4
18,9:4
18,10:2
18,12:4
18,13:1
18,14:5
18,15:1
18,17:2
18,19:1
18,20:2
18,21:6
18,22:3
18,24:8
18,25:8
18,26:1
18,27:4
18,28:1
18,29:8
18,30:5
18,32:4
18,33:3
18,35:9
18,44:3
19,1:3
19,2:2
19,3:1
19,4:4
19,6:1
19,7:1
19,8:3
19,9:3
19,10:3
19,11:1
19,12:3
19,14:4
19,17:1
19,20:1
19,21:5
19,22:4
19,23:5
19,24:7
19,25:7
19,26:2
19,27:3
19,28:2
19,29:7
19,30:4
19,32:3
19,33:2
19,34:1
19,35:8
19,44:2
20,2:3
20,4:5
20,5:1
20,7:2
20,8:2
20,10:4
20,18:2
20,19:1
20,21:4
20,22:5
20,23:4
20,24:6
20,25:6
20,27:2
20,28:3
20,30:3
20,32:2
20,33:1
20,34:2
20,35:7
21,2:7
21,4:9
21,5:5
21,6:4
21,7:6
21,8:2
21,10:8
21,16:4
21,18:6
21,19:5
21,22:9
21,24:2
21,25:2
21,26:7
21,27:2
21,28:7
21,30:1
21,32:2
21,33:3
21,34:6
21,35:3
21,44:3
22,1:7
22,2:2
22,5:4
22,6:5
22,7:3
22,8:7
22,9:7
22,10:1
22,11:3
22,12:7
22,13:4
22,14:8
22,15:4
22,16:5
22,17:5
22,18:3
22,19:4
22,20:5
22,21:9
22,23:9
22,24:11
22,25:11
22,26:2
22,27:7
22,28:2
22,29:11
22,31:3
22,32:7
22,33:6
22,35:12
22,44:6
23,1:2
23,2:7
23,3:4
23,4:9
23,5:5
23,7:6
23,8:2
23,9:2
23,10:8
23,11:6
23,12:2
23,13:5
23,14:1
23,15:5
23,17:4
23,20:4
23,22:9
23,24:2
23,25:2
23,26:7
23,27:2
23,28:7
23,29:2
23,30:1
23,31:6
23,32:2
23,33:3
23,34:6
23,35:3
23,44:3
24,1:4
24,2:9
24,3:6
24,4:11
24,5:7
24,7:8
24,8:4
24,9:4
24,10:10
24,11:8
24,12:4
24,13:7
24,14:3
24,15:7
24,16:6
24,17:6
24,18:8
24,19:7
24,20:6
24,21:2
24,22:11
24,23:2
24,26:9
24,27:4
24,28:9
24,30:3
24,31:8
24,32:4
24,33:5
24,34:8
24,35:1
24,44:5
25,3:6
25,4:11
25,5:7
25,6:6
25,7:8
25,8:4
25,10:10
25,16:6
25,18:8
25,19:7
25,21:2
25,22:11
25,23:2
25,26:9
25,27:4
25,28:9
25,30:3
25,31:8
25,32:4
25,33:5
25,34:8
25,35:1
25,36:10
25,37:1
25,39:1
25,43:11
25,44:5
25,45:11
25,46:5
25,47:5
25,48:10
25,49:2
25,50:10
25,51:5
26,4:2
26,5:2
26,6:3
26,7:1
26,8:5
26,10:1
26,16:3
26,18:1
26,19:2
26,22:2
26,23:7
26,24:9
26,25:9
26,27:5
26,29:9
26,30:6
26,32:5
26,33:4
26,34:1
26,35:10
26,44:4
27,2:5
27,4:7
27,5:3
27,6:2
27,7:4
27,10:6
27,11:4
27,13:3
27,14:1
27,15:3
27,16:2
27,17:2
27,18:4
27,19:3
27,20:2
27,21:2
27,23:2
27,24:4
27,25:4
27,26:5
27,28:5
27,29:4
27,30:1
27,31:4
27,33:1
27,35:5
27,44:1
28,1:5
28,3:3
28,4:2
28,5:2
28,6:3
28,7:1
28,8:5
28,9:5
28,10:1
28,11:1
28,12:5
28,13:2
28,14:6
28,15:2
28,16:3
28,17:3
28,18:1
28,19:2
28,20:3
28,21:7
28,22:2
28,23:7
28,24:9
28,25:9
28,27:5
28,29:9
28,30:6
28,31:1
28,32:5
28,33:4
28,34:1
28,36:1
28,37:10
28,38:9
28,39:10
28,40:9
28,41:9
28,42:9
28,44:4
29,2:9
29,4:11
29,5:7
29,6:6
29,7:8
29,8:4
29,10:10
29,16:6
29,18:8
29,19:7
29,22:11
29,23:2
29,27:4
29,28:9
29,30:3
29,31:8
29,32:4
29,33:5
29,34:8
29,35:1
29,44:5
30,1:1
30,2:6
30,4:8
30,5:4
30,6:3
30,7:5
30,8:1
30,9:1
30,10:7
30,11:5
30,12:1
30,13:4
30,15:4
30,16:3
30,17:3
30,18:5
30,19:4
30,20:3
30,21:1
30,23:1
30,24:3
30,25:3
30,26:6
30,28:6
30,29:3
30,31:5
30,32:1
30,33:2
30,34:5
30,35:4
30,44:2
31,2:1
31,4:3
31,5:1
31,8:4
31,10:2
31,22:3
31,25:8
31,27:4
31,28:1
31,30:5
31,32:4
31,33:3
31,35:9
31,36:2
31,44:3
32,2:5
32,3:2
32,4:7
32,5:3
32,6:2
32,7:4
32,10:6
32,11:4
32,13:3
32,14:1
32,15:3
32,16:2
32,17:2
32,18:4
32,19:3
32,20:2
32,21:2
32,22:7
32,23:2
32,24:4
32,25:4
32,26:5
32,29:4
32,30:1
32,31:4
32,33:1
32,34:4
32,35:5
32,36:6
32,37:5
32,38:4
32,39:5
32,40:4
32,41:4
32,42:4
32,43:7
32,44:1
32,45:7
33,1:1
33,2:4
33,3:1
33,4:6
33,5:2
33,6:1
33,7:3
33,8:1
33,9:1
33,10:5
33,11:3
33,12:1
33,13:2
33,14:2
33,15:2
33,16:1
33,17:1
33,18:3
33,19:2
33,20:1
33,21:3
33,22:6
33,23:3
33,24:5
33,25:5
33,26:4
33,27:1
33,29:5
33,30:2
33,31:3
33,32:1
33,34:3
33,35:6
33,36:5
33,37:6
33,38:5
33,39:6
33,40:5
33,41:5
33,42:5
34,1:4
34,2:1
34,4:3
34,5:1
34,6:2
34,8:4
34,9:4
34,10:2
34,12:4
34,13:1
34,14:5
34,15:1
34,16:2
34,17:2
34,19:1
34,20:2
34,21:6
34,23:6
34,24:8
34,25:8
34,26:1
34,28:1
34,29:8
34,32:4
34,33:3
34,35:9
34,36:2
34,44:3
35,1:5
35,2:10
35,3:7
35,4:12
35,5:8
35,6:7
35,7:9
35,8:5
35,9:5
35,10:11
35,11:9
35,12:5
35,13:8
35,14:4
35,15:8
35,16:7
35,17:7
35,18:9
35,19:8
35,20:7
35,21:3
35,22:12
35,23:3
35,24:1
35,25:1
35,26:10
35,27:5
35,29:1
35,30:4
35,31:9
35,32:5
35,34:9
35,36:11
35,38:1
35,40:1
35,41:1
35,42:1
35,43:12
35,44:6
36,2:1
36,4:1
36,7:2
36,8:6
36,25:10
36,28:1
36,32:6
36,33:5
36,35:11
36,37:11
36,38:10
36,44:5
37,2:10
37,4:12
37,7:9
37,8:5
37,10:11
37,25:1
37,28:10
37,32:5
37,33:6
37,38:1
37,40:1
37,41:1
37,44:6
38,4:11
38,7:8
38,8:4
38,10:10
38,28:9
38,32:4
38,33:5
38,35:1
38,37:1
38,39:1
38,43:11
38,44:5
38,45:11
38,46:5
38,47:5
38,48:10
38,49:2
38,50:10
38,51:5
38,52:7
39,2:10
39,4:12
39,7:9
39,8:5
39,10:11
39,25:1
39,28:10
39,32:5
39,33:6
39,38:1
39,40:1
39,41:1
39,42:1
39,43:12
39,44:6
40,2:9
40,4:11
40,7:8
40,8:4
40,10:10
40,28:9
40,32:4
40,33:5
40,35:1
40,39:1
40,43:11
40,44:5
41,2:9
41,4:11
41,7:8
41,8:4
41,10:10
41,28:9
41,32:4
41,33:5
41,35:1
41,39:1
41,44:5
42,2:9
42,4:11
42,7:8
42,8:4
42,10:10
42,28:9
42,32:4
42,33:5
42,35:1
42,39:1
42,43:11
42,44:5
43,2:2
43,8:7
43,10:1
43,25:11
43,32:7
43,38:11
43,44:6
44,2:4
44,4:6
44,5:2
44,6:1
44,7:3
44,10:5
44,16:1
44,18:3
44,19:2
44,22:6
44,23:3
44,24:5
44,25:5
44,26:4
44,27:1
44,28:4
44,29:5
44,30:2
44,31:3
44,32:1
44,34:3
44,35:6
44,36:5
44,37:6
44,38:5
44,39:6
44,40:5
44,41:5
44,42:5
44,43:6
44,45:6
45,2:2
45,10:1
45,25:11
45,38:11
45,46:6
45,48:1
45,49:9
46,2:4
46,4:6
46,10:5
46,25:5
46,38:5
46,48:5
46,49:3
46,50:5
47,2:4
47,4:6
47,10:5
47,25:5
47,38:5
47,48:5
47,49:3
47,50:5
48,2:1
48,4:1
48,25:10
48,38:10
48,46:5
48,47:5
48,49:8
48,51:5
48,52:3
48,53:3
48,55:8
49,2:7
49,4:9
49,10:8
49,25:2
49,38:2
49,46:3
49,47:3
49,48:8
49,50:8
49,51:3
49,52:5
49,53:5
49,54:8
49,56:8
50,2:1
50,4:1
50,25:10
50,38:10
50,47:5
50,49:8
50,51:5
50,52:3
50,53:3
50,55:8
50,57:8
50,58:8
51,2:4
51,4:6
51,10:5
51,25:5
51,38:5
51,48:5
51,49:3
51,50:5
51,52:2
52,4:4
52,10:3
52,48:3
52,49:5
52,50:3
53,4:4
53,10:3
53,48:3
53,49:5
53,50:3
53,54:3
54,4:1
54,49:8
54,55:8
55,4:9
55,10:8
55,50:8
55,56:8
56,4:1
56,49:8
56,55:8
56,57:8
57,4:9
57,10:8
57,50:8
58,4:9
58,10:8

<setup times backward>
1,23:2
1,24:4
1,30:1
1,35:5
2,1:5
2,3:3
2,5:2
2,6:3
2,7:1
2,8:5
2,9:5
2,11:1
2,12:5
2,13:2
2,14:6
2,15:2
2,16:3
2,17:3
2,18:1
2,19:2
2,20:3
2,21:7
2,23:7
2,24:9
2,27:5
2,29:9
2,30:6
2,31:1
2,32:5
2,33:4
2,34:1
2,35:10
2,37:10
2,39:10
2,40:9
2,41:9
2,42:9
2,44:4
2,46:4
2,47:4
2,49:7
2,51:4
3,1:2
3,8:2
3,9:2
3,12:2
3,14:3
3,23:4
3,24:6
3,25:6
3,32:2
3,33:1
3,35:7
4,1:7
4,2:2
4,3:5
4,5:4
4,6:5
4,7:3
4,8:7
4,9:7
4,11:3
4,12:7
4,13:4
4,14:8
4,15:4
4,16:5
4,17:5
4,18:3
4,19:4
4,20:5
4,21:9
4,23:9
4,24:11
4,25:11
4,26:2
4,27:7
4,28:2
4,29:11
4,30:8
4,31:3
4,32:7
4,33:6
4,34:3
4,35:12
4,36:1
4,37:12
4,38:11
4,39:12
4,40:11
4,41:11
4,42:11
4,44:6
4,46:6
4,47:6
4,48:1
4,49:9
4,50:1
4,51:6
4,52:4
4,53:4
4,54:1
4,55:9
4,56:1
4,57:9
4,58:9
5,1:3
5,3:1
5,6:1
5,8:3
5,9:3
5,12:3
5,14:4
5,16:1
5,17:1
5,20:1
5,21:5
5,23:5
5,24:7
5,25:7
5,27:3
5,29:7
5,30:4
5,32:3
5,33:2
5,35:8
5,44:2
6,1:2
6,8:2
6,9:2
6,12:2
6,14:3
6,21:4
6,25:6
6,27:2
6,29:6
6,30:3
6,32:2
6,33:1
6,35:7
6,44:1
7,1:4
7,3:2
7,5:1
7,6:2
7,8:4
7,9:4
7,12:4
7,13:1
7,14:5
7,15:1
7,16:2
7,17:2
7,19:1
7,20:2
7,21:6
7,23:6
7,24:8
7,25:8
7,27:4
7,29:8
7,30:5
7,32:4
7,33:3
7,35:9
7,37:9
7,38:8
7,39:9
7,40:8
7,41:8
7,42:8
7,44:3
8,14:1
8,21:2
8,23:2
8,24:4
8,25:4
8,29:4
8,30:1
8,35:5
8,37:5
8,38:4
8,39:5
8,40:4
8,41:4
8,42:4
9,23:2
9,24:4
9,30:1
9,35:5
10,1:6
10,2:1
10,3:4
10,5:3
10,6:4
10,7:2
10,8:6
10,9:6
10,11:2
10,12:6
10,13:3
10,14:7
10,15:3
10,16:4
10,17:4
10,18:2
10,19:3
10,20:4
10,21:8
10,23:8
10,24:10
10,25:10
10,26:1
10,27:6
10,28:1
10,29:10
10,30:7
10,31:2
10,32:6
10,33:5
10,34:2
10,35:11
10,37:11
10,38:10
10,39:11
10,40:10
10,41:10
10,42:10
10,44:5
10,46:5
10,47:5
10,49:8
10,51:5
10,52:3
10,53:3
10,55:8
10,57:8
10,58:8
11,1:4
11,3:2
11,5:1
11,6:2
11,8:4
11,9:4
11,12:4
11,16:2
11,19:1
11,23:6
11,24:8
11,27:4
11,30:5
11,32:4
11,33:3
11,35:9
12,14:1
12,23:2
12,24:4
12,30:1
12,35:5
13,1:3
13,3:1
13,6:1
13,8:3
13,9:3
13,12:3
13,14:4
13,16:1
13,23:5
13,24:7
13,27:3
13,30:4
13,32:3
13,33:2
13,35:8
14,23:1
14,24:3
14,35:4
15,1:3
15,3:1
15,6:1
15,8:3
15,9:3
15,12:3
15,14:4
15,16:1
15,23:5
15,24:7
15,27:3
15,30:4
15,32:3
15,33:2
15,35:8
16,1:2
16,8:2
16,9:2
16,12:2
16,14:3
16,21:4
16,24:6
16,25:6
16,27:2
16,29:6
16,30:3
16,32:2
16,33:1
16,35:7
16,44:1
17,1:2
17,8:2
17,9:2
17,12:2
17,14:3
17,23:4
17,24:6
17,27:2
17,30:3
17,32:2
17,33:1
17,35:7
18,1:4
18,3:2
18,5:1
18,6:2
18,8:4
18,9:4
18,12:4
18,13:1
18,14:5
18,15:1
18,16:2
18,17:2
18,20:2
18,21:6
18,24:8
18,25:8
18,27:4
18,29:8
18,30:5
18,32:4
18,33:3
18,35:9
18,44:3
19,1:3
19,3:1
19,6:1
19,8:3
19,9:3
19,12:3
19,14:4
19,16:1
19,17:1
19,20:1
19,21:5
19,24:7
19,25:7
19,27:3
19,29:7
19,30:4
19,32:3
19,33:2
19,35:8
19,44:2
20,1:2
20,8:2
20,9:2
20,12:2
20,14:3
20,23:4
20,24:6
20,27:2
20,30:3
20,32:2
20,33:1
20,35:7
21,24:2
21,25:2
21,35:3
22,1:7
22,2:2
22,3:5
22,5:4
22,6:5
22,7:3
22,8:7
22,9:7
22,10:1
22,11:3
22,12:7
22,13:4
22,14:8
22,15:4
22,16:5
22,17:5
22,18:3
22,19:4
22,20:5
22,21:9
22,23:9
22,24:11
22,25:11
22,26:2
22,28:2
22,29:11
22,31:3
22,32:7
22,33:6
22,35:12
22,44:6
23,24:2
23,25:2
23,29:2
23,35:3
24,35:1
25,35:1
25,37:1
25,39:1
26,1:5
26,3:3
26,5:2
26,6:3
26,7:1
26,8:5
26,9:5
26,11:1
26,12:5
26,13:2
26,14:6
26,15:2
26,16:3
26,17:3
26,18:1
26,19:2
26,20:3
26,21:7
26,23:7
26,24:9
26,25:9
26,27:5
26,30:6
26,32:5
26,33:4
26,34:1
26,35:10
26,44:4
27,14:1
27,21:2
27,23:2
27,24:4
27,25:4
27,29:4
27,35:5
28,1:5
28,3:3
28,5:2
28,6:3
28,7:1
28,8:5
28,9:5
28,11:1
28,12:5
28,13:2
28,14:6
28,15:2
28,16:3
28,17:3
28,18:1
28,19:2
28,20:3
28,21:7
28,23:7
28,24:9
28,25:9
28,27:5
28,29:9
28,30:6
28,31:1
28,34:1
28,37:10
28,38:9
28,39:10
28,40:9
28,41:9
28,42:9
28,44:4
29,35:1
30,21:1
30,23:1
30,24:3
30,25:3
30,29:3
30,35:4
31,1:4
31,3:2
31,5:1
31,6:2
31,8:4
31,9:4
31,12:4
31,13:1
31,14:5
31,15:1
31,16:2
31,17:2
31,19:1
31,20:2
31,21:6
31,23:6
31,24:8
31,25:8
31,27:4
31,29:8
31,30:5
31,32:4
31,33:3
31,35:9
31,44:3
32,14:1
32,21:2
32,23:2
32,24:4
32,25:4
32,29:4
32,30:1
32,35:5
32,37:5
32,38:4
32,39:5
32,40:4
32,41:4
32,42:4
33,1:1
33,8:1
33,9:1
33,12:1
33,14:2
33,21:3
33,23:3
33,24:5
33,25:5
33,27:1
33,29:5
33,30:2
33,32:1
33,37:6
33,38:5
33,39:6
33,40:5
33,41:5
33,42:5
34,1:4
34,3:2
34,5:1
34,6:2
34,8:4
34,9:4
34,12:4
34,13:1
34,14:5
34,15:1
34,16:2
34,17:2
34,19:1
34,20:2
34,21:6
34,23:6
34,24:8
34,25:8
34,27:4
34,29:8
34,30:5
34,32:4
34,33:3
34,35:9
34,44:3
36,1:6
36,2:1
36,3:4
36,5:3
36,6:4
36,7:2
36,8:6
36,9:6
36,11:2
36,12:6
36,13:3
36,14:7
36,15:3
36,16:4
36,17:4
36,18:2
36,19:3
36,20:4
36,21:8
36,23:8
36,24:10
36,25:10
36,26:1
36,27:6
36,28:1
36,29:10
36,30:7
36,31:2
36,32:6
36,33:5
36,34:2
36,35:11
36,44:5
38,35:1
38,37:1
38,39:1
40,35:1
40,37:1
40,39:1
41,35:1
41,37:1
41,39:1
42,35:1
42,37:1
42,39:1
43,1:7
43,2:2
43,3:5
43,5:4
43,6:5
43,7:3
43,8:7
43,9:7
43,10:1
43,11:3
43,12:7
43,13:4
43,14:8
43,15:4
43,16:5
43,17:5
43,18:3
43,19:4
43,20:5
43,21:9
43,23:9
43,24:11
43,25:11
43,26:2
43,27:7
43,28:2
43,29:11
43,30:8
43,31:3
43,32:7
43,33:6
43,34:3
43,35:12
43,36:1
43,37:12
43,38:11
43,39:12
43,40:11
43,41:11
43,42:11
43,44:6
44,1:1
44,8:1
44,9:1
44,12:1
44,14:2
44,21:3
44,23:3
44,24:5
44,25:5
44,27:1
44,29:5
44,30:2
44,32:1
44,35:6
44,37:6
44,38:5
44,39:6
44,40:5
44,41:5
44,42:5
45,1:7
45,2:2
45,3:5
45,5:4
45,6:5
45,7:3
45,8:7
45,9:7
45,10:1
45,11:3
45,12:7
45,13:4
45,14:8
45,15:4
45,16:5
45,17:5
45,18:3
45,19:4
45,20:5
45,21:9
45,23:9
45,24:11
45,25:11
45,26:2
45,27:7
45,28:2
45,29:11
45,30:8
45,31:3
45,32:7
45,33:6
45,34:3
45,35:12
45,36:1
45,37:12
45,38:11
45,39:12
45,40:11
45,41:11
45,42:11
45,44:6
46,1:1
46,8:1
46,9:1
46,12:1
46,14:2
46,21:3
46,23:3
46,24:5
46,25:5
46,27:1
46,29:5
46,30:2
46,32:1
46,35:6
46,37:6
46,38:5
46,39:6
46,40:5
46,41:5
46,42:5
46,49:3
47,1:1
47,8:1
47,9:1
47,12:1
47,14:2
47,21:3
47,23:3
47,24:5
47,25:5
47,27:1
47,29:5
47,30:2
47,32:1
47,35:6
47,37:6
47,38:5
47,39:6
47,40:5
47,41:5
47,42:5
47,49:3
48,1:6
48,2:1
48,3:4
48,5:3
48,6:4
48,7:2
48,8:6
48,9:6
48,11:2
48,12:6
48,13:3
48,14:7
48,15:3
48,16:4
48,17:4
48,18:2
48,19:3
48,20:4
48,21:8
48,23:8
48,24:10
48,25:10
48,26:1
48,27:6
48,28:1
48,29:10
48,30:7
48,31:2
48,32:6
48,33:5
48,34:2
48,35:11
48,37:11
48,38:10
48,39:11
48,40:10
48,41:10
48,42:10
48,44:5
48,46:5
48,47:5
48,49:8
48,51:5
48,52:3
48,53:3
49,24:2
49,25:2
49,29:2
49,35:3
49,37:3
49,38:2
49,39:3
49,40:2
49,41:2
49,42:2
50,1:6
50,2:1
50,3:4
50,5:3
50,6:4
50,7:2
50,8:6
50,9:6
50,11:2
50,12:6
50,13:3
50,14:7
50,15:3
50,16:4
50,17:4
50,18:2
50,19:3
50,20:4
50,21:8
50,23:8
50,24:10
50,25:10
50,26:1
50,27:6
50,28:1
50,29:10
50,30:7
50,31:2
50,32:6
50,33:5
50,34:2
50,35:11
50,37:11
50,38:10
50,39:11
50,40:10
50,41:10
50,42:10
50,44:5
50,46:5
50,47:5
50,49:8
50,51:5
50,52:3
50,53:3
50,55:8
50,57:8
51,1:1
51,8:1
51,9:1
51,12:1
51,14:2
51,21:3
51,23:3
51,24:5
51,25:5
51,27:1
51,29:5
51,30:2
51,32:1
51,35:6
51,37:6
51,38:5
51,39:6
51,40:5
51,41:5
51,42:5
51,49:3
52,1:3
52,3:1
52,6:1
52,8:3
52,9:3
52,12:3
52,14:4
52,16:1
52,17:1
52,20:1
52,21:5
52,23:5
52,24:7
52,25:7
52,27:3
52,29:7
52,30:4
52,32:3
52,33:2
52,35:8
52,37:8
52,38:7
52,39:8
52,40:7
52,41:7
52,42:7
52,44:2
52,46:2
52,47:2
52,49:5
52,51:2
53,1:3
53,3:1
53,6:1
53,8:3
53,9:3
53,12:3
53,14:4
53,16:1
53,17:1
53,20:1
53,21:5
53,23:5
53,24:7
53,25:7
53,27:3
53,29:7
53,30:4
53,32:3
53,33:2
53,35:8
53,37:8
53,38:7
53,39:8
53,40:7
53,41:7
53,42:7
53,44:2
53,46:2
53,47:2
53,49:5
53,51:2
54,1:6
54,2:1
54,3:4
54,5:3
54,6:4
54,7:2
54,8:6
54,9:6
54,11:2
54,12:6
54,13:3
54,14:7
54,15:3
54,16:4
54,17:4
54,18:2
54,19:3
54,20:4
54,21:8
54,23:8
54,24:10
54,25:10
54,26:1
54,27:6
54,28:1
54,29:10
54,30:7
54,31:2
54,32:6
54,33:5
54,34:2
54,35:11
54,37:11
54,38:10
54,39:11
54,40:10
54,41:10
54,42:10
54,44:5
54,46:5
54,47:5
54,49:8
54,51:5
54,52:3
54,53:3
55,24:2
55,25:2
55,29:2
55,35:3
55,37:3
55,38:2
55,39:3
55,40:2
55,41:2
55,42:2
56,1:6
56,2:1
56,3:4
56,5:3
56,6:4
56,7:2
56,8:6
56,9:6
56,11:2
56,12:6
56,13:3
56,14:7
56,15:3
56,16:4
56,17:4
56,18:2
56,19:3
56,20:4
56,21:8
56,23:8
56,24:10
56,25:10
56,26:1
56,27:6
56,28:1
56,29:10
56,30:7
56,31:2
56,32:6
56,33:5
56,34:2
56,35:11
56,37:11
56,38:10
56,39:11
56,40:10
56,41:10
56,42:10
56,44:5
56,46:5
56,47:5
56,49:8
56,51:5
56,52:3
56,53:3
56,55:8
57,24:2
57,25:2
57,29:2
57,35:3
57,37:3
57,38:2
57,39:3
57,40:2
57,41:2
57,42:2
58,24:2
58,25:2
58,29:2
58,35:3
58,37:3
58,38:2
58,39:3
58,40:2
58,41:2
58,42:2

<end>

<optimal SALBP-1 value>
22


<rand seed>
467321153

<Lower Bounds>
Lm1=21
Lms1=21
Lm2=14
Lm3=17
Lm4=21
Best=21

<Optimal Stations (Iterations: 10)>
27
